Gurobi Optimizer version 9.1.2 build v9.1.2rc0 (linux64)
Thread count: 36 physical cores, 72 logical processors, using up to 32 threads
Optimize a model with 12 rows, 57 columns and 590 nonzeros
Model fingerprint: 0xf32eec78
Model has 47 quadratic constraints
Coefficient statistics:
  Matrix range     [2e-05, 3e+00]
  QMatrix range    [1e+00, 1e+00]
  QLMatrix range   [1e+00, 1e+00]
  Objective range  [8e-03, 7e-01]
  Bounds range     [1e+00, 1e+00]
  RHS range        [1e+00, 1e+00]
Presolve removed 9 rows and 0 columns

Continuous model is non-convex -- solving as a MIP.

Presolve removed 9 rows and 0 columns
Presolve time: 0.00s
Presolved: 189 rows, 57 columns, 443 nonzeros
Presolved model has 47 bilinear constraint(s)
Variable types: 57 continuous, 0 integer (0 binary)

Root relaxation: objective -1.743721e+00, 44 iterations, 0.00 seconds

    Nodes    |    Current Node    |     Objective Bounds      |     Work
 Expl Unexpl |  Obj  Depth IntInf | Incumbent    BestBd   Gap | It/Node Time

     0     0   -1.74372    0   38          -   -1.74372      -     -    0s
H    0     0                       0.6147548   -1.74372   384%     -    0s
     0     0   -1.64739    0    1    0.61475   -1.64739   368%     -    0s
H    0     0                      -1.6450460   -1.64739  0.14%     -    0s
     0     0     cutoff    0        -1.64505   -1.64505  0.00%     -    0s

Cutting planes:
  RLT: 25
  BQP: 3

Explored 1 nodes (76 simplex iterations) in 0.01 seconds
Thread count was 32 (of 72 available processors)

Solution count 2: -1.64505 0.614755 
No other solutions better than -1.64505

Optimal solution found (tolerance 1.00e-04)
Best objective -1.645045978473e+00, best bound -1.645045978473e+00, gap 0.0000%

User-callback calls 78, time in user-callback 0.00 sec
Gurobi Optimizer version 9.1.2 build v9.1.2rc0 (linux64)
Thread count: 36 physical cores, 72 logical processors, using up to 32 threads
Optimize a model with 60 rows, 300 columns and 15500 nonzeros
Model fingerprint: 0xe67d6d03
Model has 250 quadratic constraints
Coefficient statistics:
  Matrix range     [1e-06, 4e+00]
  QMatrix range    [1e+00, 1e+00]
  QLMatrix range   [1e+00, 1e+00]
  Objective range  [2e-04, 9e-01]
  Bounds range     [1e+00, 1e+00]
  RHS range        [1e+00, 1e+00]
Presolve removed 11 rows and 0 columns

Continuous model is non-convex -- solving as a MIP.

Presolve removed 11 rows and 0 columns
Presolve time: 0.01s
Presolved: 1049 rows, 300 columns, 14161 nonzeros
Presolved model has 250 bilinear constraint(s)
Variable types: 300 continuous, 0 integer (0 binary)

Root relaxation: objective -1.671755e+01, 344 iterations, 0.02 seconds

    Nodes    |    Current Node    |     Objective Bounds      |     Work
 Expl Unexpl |  Obj  Depth IntInf | Incumbent    BestBd   Gap | It/Node Time

     0     0  -16.71755    0  208          -  -16.71755      -     -    0s
H    0     0                      -5.1437335  -16.71755   225%     -    0s
     0     0  -15.38951    0  195   -5.14373  -15.38951   199%     -    0s
H    0     0                      -8.3301047  -15.38951  84.7%     -    0s
     0     0  -15.19850    0  152   -8.33010  -15.19850  82.5%     -    0s
     0     0  -15.18341    0  134   -8.33010  -15.18341  82.3%     -    0s
H    0     0                      -9.8534105  -15.18341  54.1%     -    0s
     0     0  -15.18261    0  134   -9.85341  -15.18261  54.1%     -    0s
     0     0  -15.18243    0  134   -9.85341  -15.18243  54.1%     -    0s
     0     0  -15.18243    0  134   -9.85341  -15.18243  54.1%     -    0s
H    0     0                     -13.2694762  -15.18243  14.4%     -    0s
     0     2  -15.18243    0  134  -13.26948  -15.18243  14.4%     -    0s
* 1495  1142              67     -13.2715147  -14.51557  9.37%  62.0    1s
* 1823  1383              88     -13.2747447  -14.51557  9.35%  57.2    1s
* 1824  1383              88     -13.2747690  -14.51557  9.35%  57.2    1s
* 2074  1546              68     -13.6200390  -14.51557  6.58%  55.8    2s
* 2258  1619              54     -13.8243436  -14.51557  5.00%  55.2    2s
* 2262  1619              56     -13.8243437  -14.51557  5.00%  55.1    2s
* 4029  1722              55     -13.8250707  -14.29198  3.38%  59.1    3s
* 4032  1722              57     -13.8250716  -14.29198  3.38%  59.1    3s
* 4034  1722              58     -13.8250895  -14.29198  3.38%  59.1    3s
* 5732  1805              50     -13.8307840  -14.16876  2.44%  60.1    4s
* 5995  1819              48     -13.8314544  -14.16876  2.44%  60.2    4s
  7021  1852  -13.87152   17   34  -13.83145  -14.08052  1.80%  60.0    5s
* 7117  1852              48     -13.8314988  -14.06368  1.68%  59.8    5s
* 7122  1852              48     -13.8314997  -14.06368  1.68%  59.7    5s
* 9197  1031              57     -13.8435205  -14.06368  1.59%  60.6    6s
* 9711  1000              76     -13.8473972  -14.06368  1.56%  59.9    6s
* 9712   944              76     -13.8473977  -14.06368  1.56%  59.9    6s
* 9753   876              74     -13.8505716  -14.06368  1.54%  59.9    6s
*10489   807              65     -13.8517197  -14.06368  1.53%  59.0    6s
*10688   842              65     -13.8517336  -14.06368  1.53%  58.6    6s
*10785   842              75     -13.8959680  -14.06368  1.21%  58.6    6s
*11270  1008              82     -13.8960788  -14.06368  1.21%  57.9    7s
*11271  1008              82     -13.8960830  -14.06368  1.21%  57.9    7s
*11272  1008              81     -13.8961149  -14.06368  1.21%  57.9    7s
*11336  1008              82     -13.8982453  -14.06368  1.19%  57.7    7s
*11338  1008              83     -13.8982495  -14.06368  1.19%  57.7    7s
*11340  1008              84     -13.8982499  -14.06368  1.19%  57.7    7s
*11341  1008              84     -13.8982499  -14.06368  1.19%  57.7    7s
*11679  1075              89     -13.8998682  -14.06368  1.18%  57.4    7s
*11681  1075              90     -13.8998684  -14.06368  1.18%  57.3    7s
*13050  1164              61     -13.9027977  -14.06368  1.16%  57.2    7s
*13051  1164              61     -13.9028143  -14.06368  1.16%  57.2    7s
*14956  1045              67     -13.9033648  -14.00731  0.75%  57.0    8s
*14957  1045              67     -13.9034218  -14.00731  0.75%  57.0    8s
*14960  1045              66     -13.9034276  -14.00731  0.75%  57.0    8s
*15685  1136              65     -13.9035354  -14.00045  0.70%  56.0    8s
*15885  1223              64     -13.9044974  -13.97973  0.54%  55.7    8s
*15887  1223              65     -13.9044991  -13.97973  0.54%  55.7    8s
*16009  1223              70     -13.9066105  -13.97973  0.53%  55.4    8s
*16662  1412              55     -13.9066206  -13.97973  0.53%  54.4    8s
*16665  1412              55     -13.9066277  -13.97973  0.53%  54.3    8s
*16735  1412              73     -13.9082831  -13.97973  0.51%  54.2    8s
*16736  1412              73     -13.9082832  -13.97973  0.51%  54.2    8s
*16738  1412              73     -13.9082836  -13.97973  0.51%  54.2    8s
*16739  1412              73     -13.9082840  -13.97973  0.51%  54.2    8s
*17010  1563              66     -13.9084557  -13.95146  0.31%  53.6    8s
*17012  1563              67     -13.9084822  -13.95146  0.31%  53.6    8s
*17013  1563              67     -13.9084823  -13.95146  0.31%  53.6    8s
*17014  1563              65     -13.9085944  -13.95146  0.31%  53.6    8s
*17063  1563              61     -13.9086967  -13.94922  0.29%  53.5    8s
*17244  1563              57     -13.9096568  -13.94655  0.27%  53.2    8s
*17313  1563              76     -13.9098739  -13.94655  0.26%  53.0    8s
*17314  1563              76     -13.9098757  -13.94655  0.26%  53.0    8s
*17318  1563              78     -13.9098911  -13.94655  0.26%  53.0    8s
*17319  1563              78     -13.9098913  -13.94655  0.26%  53.0    8s
*17323  1563              78     -13.9098938  -13.94655  0.26%  53.0    8s
*17324  1563              78     -13.9098945  -13.94655  0.26%  53.0    8s
*17687  1833              59     -13.9105488  -13.94537  0.25%  52.4    8s
*18503  2216              55     -13.9105693  -13.93671  0.19%  50.8    9s
*18551  2216              66     -13.9121579  -13.93614  0.17%  50.7    9s
*18941  2216              75     -13.9181901  -13.93551  0.12%  49.9    9s
*20821  1663              72     -13.9181972  -13.92830  0.07%  46.3    9s
*20822  1663              72     -13.9181984  -13.92830  0.07%  46.3    9s
*20824  1663              70     -13.9181997  -13.92830  0.07%  46.3    9s
*20924  1663              65     -13.9182019  -13.92830  0.07%  46.1    9s
*21032  1663              59     -13.9182109  -13.92830  0.07%  45.9    9s

Explored 23761 nodes (987151 simplex iterations) in 9.75 seconds
Thread count was 32 (of 72 available processors)

Solution count 10: -13.9182 -13.9182 -13.9182 ... -13.9099

Optimal solution found (tolerance 1.00e-04)
Best objective -1.391821087418e+01, best bound -1.391943554207e+01, gap 0.0088%

User-callback calls 48639, time in user-callback 0.01 sec



objective value: -13.918210874182847
objective bound: -13.919435542074122
x_opt: [0.0, 1.0, 1.0, 0.0, 0.0, 0.0, 1.0, 1.0, 0.0, 0.0, 0.2589044423251384, 0.42939549339526406, 0.0, 1.0, 1.0, 1.0, 2.194831757499726e-6, 1.0, 0.0, 0.0, 0.0, 1.0, 1.0, 1.0, 0.0, 1.0, 1.0, 1.0, 0.0, 1.0, 1.0, 0.8546774367435385, 0.012406291868674304, 0.2174796649165909, 1.0, 1.0, 1.0, 1.0, 0.3289738366553716, 1.0, 0.8500710035253746, 0.2514568392193324, 1.0, 0.0, 0.0, 0.7680274872859776, 0.10234478971671827, 0.13107738863588306, 0.0, 1.0]
GUROBI solution time: 9.750730991363525

